sat
(= |goto_symex::&92;guard#1| true)
(= |goto_symex::&92;guard#2| false)
(= |memory_model::choice_rf_1_39_0_11_T_0| true)
(= |memory_model::choice_rf_1_39_2_17_T_1| false)
(= |memory_model::choice_rf_1_39_3_17_T_2| false)
(= |memory_model::choice_rf_1_39_4_38_T_3| false)
(= |memory_model::choice_rf_2_16_0_11_T_4| false)
(= |memory_model::choice_rf_2_16_1_40_T_5| false)
(= |memory_model::choice_rf_2_16_3_17_T_6| false)
(= |memory_model::choice_rf_2_16_4_38_T_7| true)
(= |memory_model::choice_rf_3_16_0_11_T_8| false)
(= |memory_model::choice_rf_3_16_1_40_T_9| true)
(= |memory_model::choice_rf_3_16_2_17_T_10| false)
(= |memory_model::choice_rf_3_16_4_38_T_11| false)
(= |memory_model::choice_rf_4_37_0_11_T_12| false)
(= |memory_model::choice_rf_4_37_1_40_T_13| true)
(= |memory_model::choice_rf_4_37_2_17_T_14| false)
(= |memory_model::choice_rf_4_37_3_17_T_15| false)
(= |memory_model::choice_rf_0_48_0_9_T_16| false)
(= |memory_model::choice_rf_0_48_0_44_T_17| true)
(= |memory_model::choice_rf_0_53_0_9_T_18| false)
(= |memory_model::choice_rf_0_53_0_44_T_19| false)
(= |memory_model::choice_rf_0_53_0_49_T_20| true)
(= |memory_model::choice_rf_0_58_0_9_T_21| false)
(= |memory_model::choice_rf_0_58_0_44_T_22| false)
(= |memory_model::choice_rf_0_58_0_49_T_23| false)
(= |memory_model::choice_rf_0_58_0_54_T_24| true)
(= |memory_model::choice_rf_1_23_0_40_F_25| true)
(= |memory_model::choice_rf_1_23_2_0_F_26| false)
(= |memory_model::choice_rf_0_62_0_12_F_27| false)
(= |memory_model::choice_rf_0_62_1_38_F_28| false)
(= |memory_model::choice_rf_0_62_2_15_F_29| false)
(= |memory_model::choice_rf_0_62_3_15_F_30| false)
(= |memory_model::choice_rf_0_62_4_36_F_31| true)
(= |memory_model::choice_rf_1_37_0_12_F_32| false)
(= |memory_model::choice_rf_1_37_2_15_F_33| true)
(= |memory_model::choice_rf_1_37_3_15_F_34| false)
(= |memory_model::choice_rf_1_37_4_36_F_35| false)
(= |memory_model::choice_rf_2_14_0_12_F_36| false)
(= |memory_model::choice_rf_2_14_1_38_F_37| false)
(= |memory_model::choice_rf_2_14_3_15_F_38| true)
(= |memory_model::choice_rf_2_14_4_36_F_39| false)
(= |memory_model::choice_rf_3_14_0_12_F_40| true)
(= |memory_model::choice_rf_3_14_1_38_F_41| false)
(= |memory_model::choice_rf_3_14_2_15_F_42| false)
(= |memory_model::choice_rf_3_14_4_36_F_43| false)
(= |memory_model::choice_rf_4_35_0_12_F_44| false)
(= |memory_model::choice_rf_4_35_1_38_F_45| true)
(= |memory_model::choice_rf_4_35_2_15_F_46| false)
(= |memory_model::choice_rf_4_35_3_15_F_47| false)
(= |memory_model::choice_rf_0_78_0_13_F_48| false)
(= |memory_model::choice_rf_0_78_1_24_F_49| true)
(= |memory_model::choice_rf_1_22_0_13_F_50| false)
(= |memory_model::choice_rf_0_80_0_14_F_51| false)
(= |memory_model::choice_rf_0_80_4_3_F_52| true)
(= |memory_model::choice_rf_0_79_0_15_F_53| false)
(= |memory_model::choice_rf_0_79_4_15_F_54| true)
(= |memory_model::choice_rf_4_2_0_16_F_55| false)
(= |memory_model::choice_rf_4_2_4_1_F_56| true)
(= |memory_model::choice_rf_0_65_0_17_F_57| false)
(= |memory_model::choice_rf_0_65_1_36_F_58| false)
(= |memory_model::choice_rf_0_65_2_13_F_59| false)
(= |memory_model::choice_rf_0_65_3_13_F_60| false)
(= |memory_model::choice_rf_0_65_4_18_F_61| false)
(= |memory_model::choice_rf_0_65_4_34_F_62| true)
(= |memory_model::choice_rf_1_25_0_17_F_63| false)
(= |memory_model::choice_rf_1_25_0_76_F_64| false)
(= |memory_model::choice_rf_1_25_2_13_F_65| false)
(= |memory_model::choice_rf_1_25_3_13_F_66| false)
(= |memory_model::choice_rf_1_25_4_18_F_67| true)
(= |memory_model::choice_rf_1_25_4_34_F_68| false)
(= |memory_model::choice_rf_2_2_0_17_F_69| false)
(= |memory_model::choice_rf_2_2_0_76_F_70| false)
(= |memory_model::choice_rf_2_2_1_36_F_71| false)
(= |memory_model::choice_rf_2_2_3_13_F_72| true)
(= |memory_model::choice_rf_2_2_4_18_F_73| false)
(= |memory_model::choice_rf_2_2_4_34_F_74| false)
(= |memory_model::choice_rf_3_2_0_17_F_75| true)
(= |memory_model::choice_rf_3_2_0_76_F_76| false)
(= |memory_model::choice_rf_3_2_1_36_F_77| false)
(= |memory_model::choice_rf_3_2_2_13_F_78| false)
(= |memory_model::choice_rf_3_2_4_18_F_79| false)
(= |memory_model::choice_rf_3_2_4_34_F_80| false)
(= |memory_model::choice_rf_4_10_0_17_F_81| false)
(= |memory_model::choice_rf_4_10_0_76_F_82| false)
(= |memory_model::choice_rf_4_10_1_36_F_83| false)
(= |memory_model::choice_rf_4_10_2_13_F_84| true)
(= |memory_model::choice_rf_4_10_3_13_F_85| false)
(= |memory_model::choice_rf_4_23_0_17_F_86| false)
(= |memory_model::choice_rf_4_23_0_76_F_87| false)
(= |memory_model::choice_rf_4_23_1_36_F_88| true)
(= |memory_model::choice_rf_4_23_2_13_F_89| false)
(= |memory_model::choice_rf_4_23_3_13_F_90| false)
(= |memory_model::choice_rf_4_23_4_18_F_91| false)
(= |memory_model::choice_rf_0_70_0_20_F_92| true)
(= |memory_model::choice_rf_1_9_0_20_F_93| true)
(= |memory_model::choice_rf_1_9_0_73_F_94| false)
(= |memory_model::choice_rf_1_8_0_21_F_95| true)
(= |memory_model::choice_rf_1_30_0_21_F_96| false)
(= |memory_model::choice_rf_1_30_1_12_F_97| true)
(= |memory_model::choice_rf_1_1_0_22_F_98| true)
(= |memory_model::choice_rf_1_1_2_10_F_99| false)
(= |memory_model::choice_rf_2_7_0_22_F_100| true)
(= |memory_model::choice_rf_1_0_0_23_F_101| true)
(= |memory_model::choice_rf_1_0_3_10_F_102| false)
(= |memory_model::choice_rf_3_7_0_23_F_103| true)
(= |memory_model::choice_rf_1_5_0_24_F_104| true)
(= |memory_model::choice_rf_1_5_4_12_F_105| false)
(= |memory_model::choice_rf_1_5_4_31_F_106| false)
(= |memory_model::choice_rf_4_8_0_24_F_107| true)
(= |memory_model::choice_rf_4_28_0_24_F_108| false)
(= |memory_model::choice_rf_4_28_4_12_F_109| true)
(= |memory_model::choice_rf_0_67_0_25_F_110| false)
(= |memory_model::choice_rf_0_67_1_17_F_111| true)
(= |memory_model::choice_rf_1_7_0_25_F_112| false)
(= |memory_model::choice_rf_1_7_0_72_F_113| false)
(= |memory_model::choice_rf_1_3_0_26_F_114| false)
(= |memory_model::choice_rf_1_27_0_26_F_115| false)
(= |memory_model::choice_rf_1_27_1_14_F_116| true)
(= |memory_model::choice_rf_1_2_0_27_F_117| false)
(= |memory_model::choice_rf_1_2_2_9_F_118| false)
(= |memory_model::choice_rf_2_4_0_27_F_119| false)
(= |memory_model::choice_rf_2_4_1_13_F_120| true)
(= |memory_model::choice_rf_1_6_0_28_F_121| false)
(= |memory_model::choice_rf_1_6_3_9_F_122| false)
(= |memory_model::choice_rf_3_4_0_28_F_123| false)
(= |memory_model::choice_rf_3_4_1_16_F_124| true)
(= |memory_model::choice_rf_1_4_0_29_F_125| false)
(= |memory_model::choice_rf_1_4_4_11_F_126| false)
(= |memory_model::choice_rf_1_4_4_30_F_127| false)
(= |memory_model::choice_rf_4_7_0_29_F_128| false)
(= |memory_model::choice_rf_4_7_1_15_F_129| true)
(= |memory_model::choice_rf_4_27_0_29_F_130| false)
(= |memory_model::choice_rf_4_27_1_15_F_131| false)
(= |memory_model::choice_rf_4_27_4_11_F_132| true)
(= |memory_model::choice_rf_0_69_0_32_F_133| false)
(= |memory_model::choice_rf_0_69_1_20_F_134| false)
(= |memory_model::choice_rf_0_69_4_17_F_135| true)
(= |memory_model::choice_rf_1_11_0_32_F_136| true)
(= |memory_model::choice_rf_1_11_4_17_F_137| false)
(= |memory_model::choice_rf_1_29_0_32_F_138| false)
(= |memory_model::choice_rf_1_29_1_20_F_139| false)
(= |memory_model::choice_rf_1_29_4_17_F_140| true)
(= |memory_model::choice_rf_2_6_0_32_F_141| false)
(= |memory_model::choice_rf_2_6_1_20_F_142| true)
(= |memory_model::choice_rf_2_6_4_17_F_143| false)
(= |memory_model::choice_rf_3_6_0_32_F_144| false)
(= |memory_model::choice_rf_3_6_1_20_F_145| true)
(= |memory_model::choice_rf_3_6_4_17_F_146| false)
(= |memory_model::choice_rf_4_5_0_32_F_147| false)
(= |memory_model::choice_rf_4_5_1_20_F_148| true)
(= |memory_model::choice_rf_4_26_0_32_F_149| false)
(= |memory_model::choice_rf_4_26_1_20_F_150| false)
(= |memory_model::choice_rf_4_26_4_17_F_151| true)
(= |memory_model::choice_rf_0_71_0_33_F_152| false)
(= |memory_model::choice_rf_0_71_1_18_F_153| false)
(= |memory_model::choice_rf_0_71_1_35_F_154| false)
(= |memory_model::choice_rf_0_71_2_12_F_155| false)
(= |memory_model::choice_rf_0_71_3_12_F_156| false)
(= |memory_model::choice_rf_0_71_4_14_F_157| false)
(= |memory_model::choice_rf_0_71_4_33_F_158| true)
(= |memory_model::choice_rf_1_10_0_33_F_159| true)
(= |memory_model::choice_rf_1_10_0_75_F_160| false)
(= |memory_model::choice_rf_1_10_2_12_F_161| false)
(= |memory_model::choice_rf_1_10_3_12_F_162| false)
(= |memory_model::choice_rf_1_10_4_14_F_163| false)
(= |memory_model::choice_rf_1_10_4_33_F_164| false)
(= |memory_model::choice_rf_1_31_0_33_F_165| false)
(= |memory_model::choice_rf_1_31_0_75_F_166| false)
(= |memory_model::choice_rf_1_31_1_18_F_167| false)
(= |memory_model::choice_rf_1_31_2_12_F_168| false)
(= |memory_model::choice_rf_1_31_3_12_F_169| false)
(= |memory_model::choice_rf_1_31_4_14_F_170| true)
(= |memory_model::choice_rf_1_31_4_33_F_171| false)
(= |memory_model::choice_rf_2_8_0_33_F_172| false)
(= |memory_model::choice_rf_2_8_0_75_F_173| false)
(= |memory_model::choice_rf_2_8_1_18_F_174| false)
(= |memory_model::choice_rf_2_8_1_35_F_175| false)
(= |memory_model::choice_rf_2_8_3_12_F_176| true)
(= |memory_model::choice_rf_2_8_4_14_F_177| false)
(= |memory_model::choice_rf_2_8_4_33_F_178| false)
(= |memory_model::choice_rf_3_8_0_33_F_179| false)
(= |memory_model::choice_rf_3_8_0_75_F_180| false)
(= |memory_model::choice_rf_3_8_1_18_F_181| true)
(= |memory_model::choice_rf_3_8_1_35_F_182| false)
(= |memory_model::choice_rf_3_8_2_12_F_183| false)
(= |memory_model::choice_rf_3_8_4_14_F_184| false)
(= |memory_model::choice_rf_3_8_4_33_F_185| false)
(= |memory_model::choice_rf_4_9_0_33_F_186| false)
(= |memory_model::choice_rf_4_9_0_75_F_187| false)
(= |memory_model::choice_rf_4_9_1_18_F_188| false)
(= |memory_model::choice_rf_4_9_1_35_F_189| false)
(= |memory_model::choice_rf_4_9_2_12_F_190| true)
(= |memory_model::choice_rf_4_9_3_12_F_191| false)
(= |memory_model::choice_rf_4_29_0_33_F_192| false)
(= |memory_model::choice_rf_4_29_0_75_F_193| false)
(= |memory_model::choice_rf_4_29_1_18_F_194| false)
(= |memory_model::choice_rf_4_29_1_35_F_195| true)
(= |memory_model::choice_rf_4_29_2_12_F_196| false)
(= |memory_model::choice_rf_4_29_3_12_F_197| false)
(= |memory_model::choice_rf_4_29_4_14_F_198| false)
(= |memory_model::choice_rf_0_66_0_34_F_199| false)
(= |memory_model::choice_rf_0_66_1_21_F_200| false)
(= |memory_model::choice_rf_0_66_4_16_F_201| true)
(= |memory_model::choice_rf_1_26_0_34_F_202| false)
(= |memory_model::choice_rf_1_26_1_21_F_203| false)
(= |memory_model::choice_rf_1_26_4_16_F_204| true)
(= |memory_model::choice_rf_2_3_0_34_F_205| false)
(= |memory_model::choice_rf_2_3_1_21_F_206| true)
(= |memory_model::choice_rf_2_3_4_16_F_207| false)
(= |memory_model::choice_rf_3_3_0_34_F_208| false)
(= |memory_model::choice_rf_3_3_1_21_F_209| true)
(= |memory_model::choice_rf_3_3_4_16_F_210| false)
(= |memory_model::choice_rf_4_4_0_34_F_211| false)
(= |memory_model::choice_rf_4_4_1_21_F_212| true)
(= |memory_model::choice_rf_4_24_0_34_F_213| false)
(= |memory_model::choice_rf_4_24_1_21_F_214| false)
(= |memory_model::choice_rf_4_24_4_16_F_215| true)
(= |memory_model::choice_rf_0_68_0_35_F_216| false)
(= |memory_model::choice_rf_0_68_1_19_F_217| false)
(= |memory_model::choice_rf_0_68_1_34_F_218| false)
(= |memory_model::choice_rf_0_68_2_11_F_219| false)
(= |memory_model::choice_rf_0_68_3_11_F_220| false)
(= |memory_model::choice_rf_0_68_4_13_F_221| false)
(= |memory_model::choice_rf_0_68_4_32_F_222| true)
(= |memory_model::choice_rf_1_28_0_35_F_223| false)
(= |memory_model::choice_rf_1_28_0_74_F_224| false)
(= |memory_model::choice_rf_1_28_1_19_F_225| false)
(= |memory_model::choice_rf_1_28_2_11_F_226| false)
(= |memory_model::choice_rf_1_28_3_11_F_227| false)
(= |memory_model::choice_rf_1_28_4_13_F_228| true)
(= |memory_model::choice_rf_1_28_4_32_F_229| false)
(= |memory_model::choice_rf_2_5_0_35_F_230| false)
(= |memory_model::choice_rf_2_5_0_74_F_231| false)
(= |memory_model::choice_rf_2_5_1_19_F_232| false)
(= |memory_model::choice_rf_2_5_1_34_F_233| false)
(= |memory_model::choice_rf_2_5_3_11_F_234| true)
(= |memory_model::choice_rf_2_5_4_13_F_235| false)
(= |memory_model::choice_rf_2_5_4_32_F_236| false)
(= |memory_model::choice_rf_3_5_0_35_F_237| false)
(= |memory_model::choice_rf_3_5_0_74_F_238| false)
(= |memory_model::choice_rf_3_5_1_19_F_239| true)
(= |memory_model::choice_rf_3_5_1_34_F_240| false)
(= |memory_model::choice_rf_3_5_2_11_F_241| false)
(= |memory_model::choice_rf_3_5_4_13_F_242| false)
(= |memory_model::choice_rf_3_5_4_32_F_243| false)
(= |memory_model::choice_rf_4_6_0_35_F_244| false)
(= |memory_model::choice_rf_4_6_0_74_F_245| false)
(= |memory_model::choice_rf_4_6_1_19_F_246| false)
(= |memory_model::choice_rf_4_6_1_34_F_247| false)
(= |memory_model::choice_rf_4_6_2_11_F_248| true)
(= |memory_model::choice_rf_4_6_3_11_F_249| false)
(= |memory_model::choice_rf_4_25_0_35_F_250| false)
(= |memory_model::choice_rf_4_25_0_74_F_251| false)
(= |memory_model::choice_rf_4_25_1_19_F_252| false)
(= |memory_model::choice_rf_4_25_1_34_F_253| true)
(= |memory_model::choice_rf_4_25_2_11_F_254| false)
(= |memory_model::choice_rf_4_25_3_11_F_255| false)
(= |memory_model::choice_rf_4_25_4_13_F_256| false)
(= |memory_model::choice_rf_0_64_0_36_F_257| false)
(= |memory_model::choice_rf_0_64_0_63_F_258| true)
(= |memory_model::choice_rf_0_77_0_37_F_259| false)
(= |memory_model::choice_rf_0_84_0_37_F_260| false)
(= |memory_model::choice_rf_0_84_0_83_F_261| true)
(= |memory_model::choice_rf_0_85_0_37_F_262| false)
(= |memory_model::choice_rf_0_85_0_83_F_263| true)
(= |memory_model::choice_rf_0_82_0_41_F_264| false)
(= |memory_model::choice_rf_0_82_2_1_F_265| false)
(= |memory_model::choice_rf_0_82_3_0_F_266| true)
(= |memory_model::choice_rf_0_81_0_42_F_267| false)
(= |memory_model::choice_rf_0_81_3_1_F_268| false)
(= |memory_model::choice_rf_0_81_4_0_F_269| true)
(= |memory_model::choice_ws-ext_0_11_1_40_T_270| true)
(= |memory_model::choice_ws-ext_0_11_2_17_T_271| true)
(= |memory_model::choice_ws-ext_0_11_3_17_T_272| true)
(= |memory_model::choice_ws-ext_0_11_4_38_T_273| true)
(= |memory_model::choice_ws-ext_1_40_2_17_T_274| true)
(= |memory_model::choice_ws-ext_1_40_3_17_T_275| true)
(= |memory_model::choice_ws-ext_1_40_4_38_T_276| true)
(= |memory_model::choice_ws-ext_2_17_3_17_T_277| false)
(= |memory_model::choice_ws-ext_2_17_4_38_T_278| false)
(= |memory_model::choice_ws-ext_3_17_4_38_T_279| true)
(= |memory_model::choice_ws-ext_0_40_2_0_F_280| true)
(= |memory_model::choice_ws-ext_0_12_1_38_F_281| true)
(= |memory_model::choice_ws-ext_0_12_2_15_F_282| true)
(= |memory_model::choice_ws-ext_0_12_3_15_F_283| true)
(= |memory_model::choice_ws-ext_0_12_4_36_F_284| true)
(= |memory_model::choice_ws-ext_1_38_2_15_F_285| false)
(= |memory_model::choice_ws-ext_1_38_3_15_F_286| false)
(= |memory_model::choice_ws-ext_1_38_4_36_F_287| true)
(= |memory_model::choice_ws-ext_2_15_3_15_F_288| false)
(= |memory_model::choice_ws-ext_2_15_4_36_F_289| true)
(= |memory_model::choice_ws-ext_3_15_4_36_F_290| true)
(= |memory_model::choice_ws-ext_0_13_1_24_F_291| true)
(= |memory_model::choice_ws-ext_0_14_4_3_F_292| true)
(= |memory_model::choice_ws-ext_0_15_4_15_F_293| true)
(= |memory_model::choice_ws-ext_0_16_4_1_F_294| true)
(= |memory_model::choice_ws-ext_0_17_1_36_F_295| true)
(= |memory_model::choice_ws-ext_0_17_2_13_F_296| true)
(= |memory_model::choice_ws-ext_0_17_3_13_F_297| true)
(= |memory_model::choice_ws-ext_0_17_4_18_F_298| true)
(= |memory_model::choice_ws-ext_0_17_4_34_F_299| true)
(= |memory_model::choice_ws-ext_0_76_1_36_F_300| false)
(= |memory_model::choice_ws-ext_0_76_2_13_F_301| false)
(= |memory_model::choice_ws-ext_0_76_3_13_F_302| false)
(= |memory_model::choice_ws-ext_0_76_4_18_F_303| false)
(= |memory_model::choice_ws-ext_0_76_4_34_F_304| false)
(= |memory_model::choice_ws-ext_1_36_2_13_F_305| false)
(= |memory_model::choice_ws-ext_1_36_3_13_F_306| false)
(= |memory_model::choice_ws-ext_1_36_4_18_F_307| false)
(= |memory_model::choice_ws-ext_1_36_4_34_F_308| true)
(= |memory_model::choice_ws-ext_2_13_3_13_F_309| false)
(= |memory_model::choice_ws-ext_2_13_4_18_F_310| true)
(= |memory_model::choice_ws-ext_2_13_4_34_F_311| true)
(= |memory_model::choice_ws-ext_3_13_4_18_F_312| true)
(= |memory_model::choice_ws-ext_3_13_4_34_F_313| true)
(= |memory_model::choice_ws-ext_0_18_4_19_F_314| true)
(= |memory_model::choice_ws-ext_0_19_4_20_F_315| true)
(= |memory_model::choice_ws-ext_0_21_1_12_F_316| true)
(= |memory_model::choice_ws-ext_0_21_1_33_F_317| true)
(= |memory_model::choice_ws-ext_0_22_2_10_F_318| true)
(= |memory_model::choice_ws-ext_0_23_3_10_F_319| true)
(= |memory_model::choice_ws-ext_0_24_4_12_F_320| true)
(= |memory_model::choice_ws-ext_0_24_4_31_F_321| true)
(= |memory_model::choice_ws-ext_0_25_1_17_F_322| true)
(= |memory_model::choice_ws-ext_0_72_1_17_F_323| false)
(= |memory_model::choice_ws-ext_0_26_1_14_F_324| true)
(= |memory_model::choice_ws-ext_0_26_1_32_F_325| true)
(= |memory_model::choice_ws-ext_0_27_1_13_F_326| true)
(= |memory_model::choice_ws-ext_0_27_2_9_F_327| true)
(= |memory_model::choice_ws-ext_1_13_2_9_F_328| true)
(= |memory_model::choice_ws-ext_0_28_1_16_F_329| true)
(= |memory_model::choice_ws-ext_0_28_3_9_F_330| true)
(= |memory_model::choice_ws-ext_1_16_3_9_F_331| true)
(= |memory_model::choice_ws-ext_0_29_1_15_F_332| true)
(= |memory_model::choice_ws-ext_0_29_4_11_F_333| true)
(= |memory_model::choice_ws-ext_0_29_4_30_F_334| true)
(= |memory_model::choice_ws-ext_1_15_4_11_F_335| true)
(= |memory_model::choice_ws-ext_1_15_4_30_F_336| true)
(= |memory_model::choice_ws-ext_0_32_1_20_F_337| true)
(= |memory_model::choice_ws-ext_0_32_4_17_F_338| true)
(= |memory_model::choice_ws-ext_1_20_4_17_F_339| true)
(= |memory_model::choice_ws-ext_0_33_1_18_F_340| true)
(= |memory_model::choice_ws-ext_0_33_1_35_F_341| true)
(= |memory_model::choice_ws-ext_0_33_2_12_F_342| true)
(= |memory_model::choice_ws-ext_0_33_3_12_F_343| true)
(= |memory_model::choice_ws-ext_0_33_4_14_F_344| true)
(= |memory_model::choice_ws-ext_0_33_4_33_F_345| true)
(= |memory_model::choice_ws-ext_0_75_1_18_F_346| false)
(= |memory_model::choice_ws-ext_0_75_1_35_F_347| false)
(= |memory_model::choice_ws-ext_0_75_2_12_F_348| false)
(= |memory_model::choice_ws-ext_0_75_3_12_F_349| false)
(= |memory_model::choice_ws-ext_0_75_4_14_F_350| false)
(= |memory_model::choice_ws-ext_0_75_4_33_F_351| false)
(= |memory_model::choice_ws-ext_1_18_2_12_F_352| true)
(= |memory_model::choice_ws-ext_1_18_3_12_F_353| true)
(= |memory_model::choice_ws-ext_1_18_4_14_F_354| true)
(= |memory_model::choice_ws-ext_1_18_4_33_F_355| true)
(= |memory_model::choice_ws-ext_1_35_2_12_F_356| false)
(= |memory_model::choice_ws-ext_1_35_3_12_F_357| false)
(= |memory_model::choice_ws-ext_1_35_4_14_F_358| false)
(= |memory_model::choice_ws-ext_1_35_4_33_F_359| true)
(= |memory_model::choice_ws-ext_2_12_3_12_F_360| false)
(= |memory_model::choice_ws-ext_2_12_4_14_F_361| true)
(= |memory_model::choice_ws-ext_2_12_4_33_F_362| true)
(= |memory_model::choice_ws-ext_3_12_4_14_F_363| true)
(= |memory_model::choice_ws-ext_3_12_4_33_F_364| true)
(= |memory_model::choice_ws-ext_0_34_1_21_F_365| true)
(= |memory_model::choice_ws-ext_0_34_4_16_F_366| true)
(= |memory_model::choice_ws-ext_1_21_4_16_F_367| true)
(= |memory_model::choice_ws-ext_0_35_1_19_F_368| true)
(= |memory_model::choice_ws-ext_0_35_1_34_F_369| true)
(= |memory_model::choice_ws-ext_0_35_2_11_F_370| true)
(= |memory_model::choice_ws-ext_0_35_3_11_F_371| true)
(= |memory_model::choice_ws-ext_0_35_4_13_F_372| true)
(= |memory_model::choice_ws-ext_0_35_4_32_F_373| true)
(= |memory_model::choice_ws-ext_0_74_1_19_F_374| false)
(= |memory_model::choice_ws-ext_0_74_1_34_F_375| false)
(= |memory_model::choice_ws-ext_0_74_2_11_F_376| false)
(= |memory_model::choice_ws-ext_0_74_3_11_F_377| false)
(= |memory_model::choice_ws-ext_0_74_4_13_F_378| false)
(= |memory_model::choice_ws-ext_0_74_4_32_F_379| false)
(= |memory_model::choice_ws-ext_1_19_2_11_F_380| true)
(= |memory_model::choice_ws-ext_1_19_3_11_F_381| true)
(= |memory_model::choice_ws-ext_1_19_4_13_F_382| true)
(= |memory_model::choice_ws-ext_1_19_4_32_F_383| true)
(= |memory_model::choice_ws-ext_1_34_2_11_F_384| false)
(= |memory_model::choice_ws-ext_1_34_3_11_F_385| false)
(= |memory_model::choice_ws-ext_1_34_4_13_F_386| false)
(= |memory_model::choice_ws-ext_1_34_4_32_F_387| true)
(= |memory_model::choice_ws-ext_2_11_3_11_F_388| false)
(= |memory_model::choice_ws-ext_2_11_4_13_F_389| true)
(= |memory_model::choice_ws-ext_2_11_4_32_F_390| true)
(= |memory_model::choice_ws-ext_3_11_4_13_F_391| true)
(= |memory_model::choice_ws-ext_3_11_4_32_F_392| true)
(= |memory_model::choice_ws-ext_0_41_2_1_F_393| true)
(= |memory_model::choice_ws-ext_0_41_3_0_F_394| true)
(= |memory_model::choice_ws-ext_2_1_3_0_F_395| true)
(= |memory_model::choice_ws-ext_0_42_3_1_F_396| true)
(= |memory_model::choice_ws-ext_0_42_4_0_F_397| true)
(= |memory_model::choice_ws-ext_3_1_4_0_F_398| true)
(= |memory_model::choice_ws-ext_0_38_4_22_F_399| true)
(= |memory_model::choice_ws-ext_0_39_4_21_F_400| true)
(= |main$tmp_guard0#3| #b00000001)
(= |__CPROVER_next_thread_id#3| #b00000000000000000000000000000001)
(= |__CPROVER_next_thread_id#6| #b00000000000000000000000000000010)
(= |__CPROVER_next_thread_id#9| #b00000000000000000000000000000011)
(= |__unbuffered_cnt#2| #b00000000000000000000000000000100)
(= |b$w_buff0_used#2| #b00000000)
(= |b$r_buff0_thd0#2| #b00000000)
(= |b$w_buff0#2| #b00000000000000000000000000000001)
(= |b$w_buff1_used#2| #b00000000)
(= |b$r_buff1_thd0#2| #b00000000)
(= |b$w_buff1#2| #b00000000000000000000000000000000)
(= |b#2| #b00000000000000000000000000000001)
(= |b#4| #b00000000000000000000000000000001)
(= |b$w_buff0_used#6| #b00000000)
(= |b$w_buff1_used#6| #b00000000)
(= |b$r_buff0_thd0#8| #b00000000)
(= |b$r_buff1_thd0#7| #b00000000)
(= |y#2| #b00000000000000000000000000000010)
(= |z#2| #b00000000000000000000000000000010)
(= |__unbuffered_p0_EAX#2| #b00000000000000000000000000000000)
(= |__unbuffered_p3_EAX#2| #b00000000000000000000000000000001)
(= |__unbuffered_p3_EBX#2| #b00000000000000000000000000000000)
(= |main$tmp_guard1#2| #b00000000)
(= |main$tmp_guard1#3| #b10000000)
(= |main$tmp_guard1#6| #b00000000)
(= |pthread_create::1::this_thread_id!1@0#0| #b10000000000000000000000000000000)
(= |b$w_buff0#4| #b00000000000000000000000000000000)
(= |b$w_buff0_used#11| #b00000000)
(= |b$r_buff0_thd0#11| #b00000000)
(= |b$r_buff1_thd0#9| #b00000000)
(= |b$r_buff1_thd0#10| #b10000000)
(= |b$r_buff0_thd1#2| #b00000000)
(= |b$r_buff1_thd1#2| #b00000000)
(= |b$r_buff1_thd1#3| #b10000000)
(= |b$r_buff0_thd2#2| #b00000000)
(= |b$r_buff1_thd2#2| #b00000000)
(= |b$r_buff1_thd2#3| #b10000000)
(= |b$r_buff0_thd3#2| #b00000000)
(= |b$r_buff1_thd3#2| #b00000000)
(= |b$r_buff1_thd3#3| #b10000000)
(= |b$r_buff0_thd4#2| #b00000000)
(= |b$r_buff1_thd4#2| #b00000000)
(= |b$r_buff1_thd4#3| #b10000000)
(= |b$r_buff0_thd1#4| #b00000001)
(= |x#2| #b00000000000000000000000000000000)
(= |__unbuffered_p0_EAX#4| #b00000000000000000000000000000000)
(= |__unbuffered_p0_EAX#5| #b10000000000000000000000000000000)
(= |b$w_buff0_used#14| #b00000001)
(= |b$r_buff0_thd1#6| #b00000001)
(= |b$w_buff0#7| #b00000000000000000000000000000001)
(= |b$w_buff1_used#10| #b00000000)
(= |b$r_buff1_thd1#5| #b00000000)
(= |b$w_buff1#5| #b00000000000000000000000000000000)
(= |b#6| #b00000000000000000000000000000000)
(= |b#8| #b00000000000000000000000000000001)
(= |b$w_buff0_used#18| #b00000000)
(= |b$w_buff1_used#14| #b00000000)
(= |b$r_buff0_thd1#12| #b00000001)
(= |b$r_buff1_thd1#10| #b00000000)
(= |__unbuffered_cnt#4| #b00000000000000000000000000000010)
(= |__unbuffered_cnt#6| #b00000000000000000000000000000011)
(= |pthread_create::1::this_thread_id!2@0#0| #b00000000000000000000000000000000)
(= |b$w_buff0_used#23| #b00000001)
(= |b$r_buff0_thd2#4| #b00000000)
(= |b$w_buff0#9| #b00000000000000000000000000000001)
(= |b$w_buff1_used#17| #b00000000)
(= |b$r_buff1_thd2#5| #b00000000)
(= |b$w_buff1#7| #b00000000000000000000000000000000)
(= |b#10| #b00000000000000000000000000000000)
(= |__unbuffered_cnt#8| #b00000000000000000000000000000001)
(= |pthread_create::1::this_thread_id!3@0#0| #b10000000000000000000000000000000)
(= |b$w_buff0_used#26| #b00000001)
(= |b$r_buff0_thd3#4| #b00000000)
(= |b$w_buff0#11| #b00000000000000000000000000000001)
(= |b$w_buff1_used#20| #b00000000)
(= |b$r_buff1_thd3#5| #b00000000)
(= |b$w_buff1#9| #b00000000000000000000000000000000)
(= |b#13| #b00000000000000000000000000000000)
(= |__unbuffered_cnt#11| #b00000000000000000000000000000000)
(= |pthread_create::1::this_thread_id!4@0#0| #b10000000000000000000000000000000)
(= |a#3| #b00000000000000000000000000000001)
(= |nondet_symex::nondet4| #b00000000000000000000000000000000)
(= |b#16| #b00000000000000000000000000000000)
(= |b$w_buff0_used#29| #b00000001)
(= |b$r_buff0_thd4#4| #b00000000)
(= |b$w_buff1_used#23| #b00000000)
(= |b$r_buff1_thd4#5| #b00000000)
(= |b$w_buff0#13| #b00000000000000000000000000000001)
(= |b$w_buff1#11| #b00000000000000000000000000000000)
(= |b$w_buff0_used#32| #b00000000)
(= |b$r_buff0_thd4#7| #b00000000)
(= |b$w_buff0#16| #b00000000000000000000000000000001)
(= |b$w_buff1_used#26| #b00000000)
(= |b$r_buff1_thd4#8| #b00000000)
(= |b$w_buff1#14| #b00000000000000000000000000000000)
(= |b#20| #b00000000000000000000000000000001)
(= |__unbuffered_cnt#14| #b00000000000000000000000000000011)
(= |__CPROVER_threads_exited#1$wclk$8| #b00001011)
(= |__CPROVER_threads_exited#2$rclk$8| #b11110110)
(= |__CPROVER_threads_exited#5$wclk$8| #b11111111)
(= |__CPROVER_threads_exited#7$wclk$8| #b11111011)
(= |__CPROVER_threads_exited#9$wclk$8| #b11111100)
(= |__CPROVER_threads_exited#4$rclk$8| #b11111110)
(= |__CPROVER_threads_exited#3$wclk$8| #b11111001)
(= |__CPROVER_threads_exited#6$rclk$8| #b11111010)
(= |__CPROVER_threads_exited#8$rclk$8| #b11111010)
(= |x#1$wclk$8| #b01100111)
(= |x#2$rclk$8| #b11000010)
(= |x#4$wclk$8| #b11000100)
(= |__unbuffered_cnt#7$wclk$8| #b11101100)
(= |__unbuffered_cnt#2$rclk$8| #b11101110)
(= |__unbuffered_cnt#10$wclk$8| #b11101001)
(= |__unbuffered_cnt#13$wclk$8| #b11101000)
(= |__unbuffered_cnt#16$wclk$8| #b11101101)
(= |__unbuffered_cnt#1$wclk$8| #b00001100)
(= |__unbuffered_cnt#4$rclk$8| #b11101100)
(= |__unbuffered_cnt#8$rclk$8| #b11101001)
(= |__unbuffered_cnt#11$rclk$8| #b11101000)
(= |__unbuffered_cnt#14$rclk$8| #b11101101)
(= |__unbuffered_p0_EAX#6$wclk$8| #b11000010)
(= |__unbuffered_p0_EAX#2$rclk$8| #b11111101)
(= |__unbuffered_p0_EAX#1$wclk$8| #b00001101)
(= |__unbuffered_p0_EAX#5$rclk$8| #b11000010)
(= |__unbuffered_p3_EAX#4$wclk$8| #b11011011)
(= |__unbuffered_p3_EAX#2$rclk$8| #b11111101)
(= |__unbuffered_p3_EBX#4$wclk$8| #b11011100)
(= |__unbuffered_p3_EBX#2$rclk$8| #b11111101)
(= |a#1$wclk$8| #b00010000)
(= |a#3$rclk$8| #b11011011)
(= |b#9$wclk$8| #b11011101)
(= |b#2$rclk$8| #b11111011)
(= |b#12$wclk$8| #b11011010)
(= |b#15$wclk$8| #b11011001)
(= |b#19$wclk$8| #b11011100)
(= |b#22$wclk$8| #b11011111)
(= |b#1$wclk$8| #b00010001)
(= |b#6$rclk$8| #b11011101)
(= |b#5$wclk$8| #b11111011)
(= |b#10$rclk$8| #b11011010)
(= |b#13$rclk$8| #b11011001)
(= |b#16$rclk$8| #b11011100)
(= |b#20$rclk$8| #b11011111)
(= |b$r_buff0_thd0#1$wclk$8| #b00010101)
(= |b$r_buff0_thd0#11$rclk$8| #b10101111)
(= |b$r_buff0_thd0#10$wclk$8| #b11111011)
(= |b$r_buff0_thd1#1$wclk$8| #b00010110)
(= |b$r_buff0_thd1#2$rclk$8| #b10101111)
(= |b$r_buff0_thd1#6$rclk$8| #b11011101)
(= |b$r_buff0_thd2#1$wclk$8| #b00110011)
(= |b$r_buff0_thd2#2$rclk$8| #b10101111)
(= |b$r_buff0_thd2#6$wclk$8| #b11011010)
(= |b$r_buff0_thd2#4$rclk$8| #b11011010)
(= |b$r_buff0_thd3#1$wclk$8| #b00110110)
(= |b$r_buff0_thd3#2$rclk$8| #b10101111)
(= |b$r_buff0_thd3#6$wclk$8| #b11011001)
(= |b$r_buff0_thd3#4$rclk$8| #b11011001)
(= |b$r_buff0_thd4#1$wclk$8| #b00110111)
(= |b$r_buff0_thd4#2$rclk$8| #b10101111)
(= |b$r_buff0_thd4#6$wclk$8| #b11011100)
(= |b$r_buff0_thd4#9$wclk$8| #b11011111)
(= |b$r_buff0_thd4#4$rclk$8| #b11011100)
(= |b$r_buff0_thd4#7$rclk$8| #b11011111)
(= |b$r_buff1_thd0#11$wclk$8| #b10101111)
(= |b$r_buff1_thd0#2$rclk$8| #b11111011)
(= |b$r_buff1_thd0#1$wclk$8| #b00111001)
(= |b$r_buff1_thd0#10$rclk$8| #b10101111)
(= |b$r_buff1_thd0#8$wclk$8| #b11111011)
(= |b$r_buff1_thd1#1$wclk$8| #b00111010)
(= |b$r_buff1_thd1#3$rclk$8| #b10101111)
(= |b$r_buff1_thd1#5$rclk$8| #b11011101)
(= |b$r_buff1_thd2#1$wclk$8| #b00111011)
(= |b$r_buff1_thd2#3$rclk$8| #b10101111)
(= |b$r_buff1_thd2#7$wclk$8| #b11011010)
(= |b$r_buff1_thd2#5$rclk$8| #b11011010)
(= |b$r_buff1_thd2#4$wclk$8| #b10101111)
(= |b$r_buff1_thd3#1$wclk$8| #b01001100)
(= |b$r_buff1_thd3#3$rclk$8| #b10101111)
(= |b$r_buff1_thd3#7$wclk$8| #b11011001)
(= |b$r_buff1_thd3#5$rclk$8| #b11011001)
(= |b$r_buff1_thd3#4$wclk$8| #b10101111)
(= |b$r_buff1_thd4#1$wclk$8| #b01001101)
(= |b$r_buff1_thd4#3$rclk$8| #b10101111)
(= |b$r_buff1_thd4#7$wclk$8| #b11011100)
(= |b$r_buff1_thd4#10$wclk$8| #b11011111)
(= |b$r_buff1_thd4#5$rclk$8| #b11011100)
(= |b$r_buff1_thd4#4$wclk$8| #b10101111)
(= |b$r_buff1_thd4#8$rclk$8| #b11011111)
(= |b$w_buff0#6$wclk$8| #b10101111)
(= |b$w_buff0#2$rclk$8| #b11111011)
(= |b$w_buff0#15$wclk$8| #b11011100)
(= |b$w_buff0#1$wclk$8| #b01011111)
(= |b$w_buff0#4$rclk$8| #b10101111)
(= |b$w_buff0#7$rclk$8| #b11011101)
(= |b$w_buff0#9$rclk$8| #b11011010)
(= |b$w_buff0#11$rclk$8| #b11011001)
(= |b$w_buff0#13$rclk$8| #b11011100)
(= |b$w_buff0#16$rclk$8| #b11011111)
(= |b$w_buff0_used#13$wclk$8| #b10101111)
(= |b$w_buff0_used#2$rclk$8| #b11111011)
(= |b$w_buff0_used#22$wclk$8| #b11011101)
(= |b$w_buff0_used#25$wclk$8| #b11011010)
(= |b$w_buff0_used#28$wclk$8| #b11011001)
(= |b$w_buff0_used#31$wclk$8| #b11011100)
(= |b$w_buff0_used#34$wclk$8| #b11011111)
(= |b$w_buff0_used#1$wclk$8| #b01100000)
(= |b$w_buff0_used#11$rclk$8| #b10101111)
(= |b$w_buff0_used#10$wclk$8| #b11111011)
(= |b$w_buff0_used#14$rclk$8| #b11011101)
(= |b$w_buff0_used#23$rclk$8| #b11011010)
(= |b$w_buff0_used#26$rclk$8| #b11011001)
(= |b$w_buff0_used#29$rclk$8| #b11011100)
(= |b$w_buff0_used#32$rclk$8| #b11011111)
(= |b$w_buff1#4$wclk$8| #b10101111)
(= |b$w_buff1#2$rclk$8| #b11111011)
(= |b$w_buff1#13$wclk$8| #b11011100)
(= |b$w_buff1#1$wclk$8| #b01100001)
(= |b$w_buff1#5$rclk$8| #b11011101)
(= |b$w_buff1#7$rclk$8| #b11011010)
(= |b$w_buff1#9$rclk$8| #b11011001)
(= |b$w_buff1#11$rclk$8| #b11011100)
(= |b$w_buff1#14$rclk$8| #b11011111)
(= |b$w_buff1_used#9$wclk$8| #b10101111)
(= |b$w_buff1_used#2$rclk$8| #b11111011)
(= |b$w_buff1_used#16$wclk$8| #b11011101)
(= |b$w_buff1_used#19$wclk$8| #b11011010)
(= |b$w_buff1_used#22$wclk$8| #b11011001)
(= |b$w_buff1_used#25$wclk$8| #b11011100)
(= |b$w_buff1_used#28$wclk$8| #b11011111)
(= |b$w_buff1_used#1$wclk$8| #b01100010)
(= |b$w_buff1_used#10$rclk$8| #b11011101)
(= |b$w_buff1_used#8$wclk$8| #b11111011)
(= |b$w_buff1_used#17$rclk$8| #b11011010)
(= |b$w_buff1_used#20$rclk$8| #b11011001)
(= |b$w_buff1_used#23$rclk$8| #b11011100)
(= |b$w_buff1_used#26$rclk$8| #b11011111)
(= |main$tmp_guard1#5| #b00000000)
(= |y#4$wclk$8| #b11000101)
(= |y#2$rclk$8| #b11111101)
(= |y#5$wclk$8| #b11001001)
(= |z#4$wclk$8| #b11011000)
(= |z#2$rclk$8| #b11111101)
(= |z#5$wclk$8| #b11011001)
(= |__unbuffered_p3_EAX#1$wclk$8| #b00001110)
(= |__unbuffered_p3_EBX#1$wclk$8| #b00001111)
(= |a#2$wclk$8| #b11011010)
(= |b$flush_delayed#1$wclk$8| #b00010011)
(= |b$flush_delayed#3$wclk$8| #b11011100)
(= |b$mem_tmp#1$wclk$8| #b00010100)
(= |b$mem_tmp#2$wclk$8| #b11011100)
(= |b$r_buff0_thd1#5$wclk$8| #b10101111)
(= |b$r_buff0_thd1#14$wclk$8| #b11011101)
(= |b$r_buff1_thd1#4$wclk$8| #b10101111)
(= |b$r_buff1_thd1#11$wclk$8| #b11011101)
(= |y#1$wclk$8| #b01101000)
(= |z#1$wclk$8| #b01101001)
(= |weak$$choice0#1$wclk$8| #b01100101)
(= |weak$$choice0#2$wclk$8| #b11011100)
(= |weak$$choice2#1$wclk$8| #b01100110)
(= |weak$$choice2#2$wclk$8| #b11011100)
(= t1$46$spwnclk$8 #b01101110)
(= t1$51$spwnclk$8 #b01110011)
(= t1$56$spwnclk$8 #b10110111)
(= t1$61$spwnclk$8 #b11001100)
(= |main::1::t1244!0@1$wclk$8| #b00000000)
(= |main::1::t1245!0@1$wclk$8| #b00000001)
(= |main::1::t1246!0@1$wclk$8| #b00000010)
(= |__CPROVER_dead_object#1$wclk$8| #b00000011)
(= |__CPROVER_deallocated#1$wclk$8| #b00000100)
(= |__CPROVER_malloc_is_new_array#1$wclk$8| #b00000101)
(= |__CPROVER_malloc_object#1$wclk$8| #b00000110)
(= |__CPROVER_malloc_size#1$wclk$8| #b00000111)
(= |__CPROVER_memory_leak#1$wclk$8| #b00001000)
(= |__CPROVER_next_thread_id#1$wclk$8| #b00001001)
(= |__CPROVER_pipe_count#1$wclk$8| #b00001010)
(= |b$read_delayed#1$wclk$8| #b01001110)
(= |b$read_delayed_var#1$wclk$8| #b01001111)
(= |main$tmp_guard0#1$wclk$8| #b01100011)
(= |main$tmp_guard1#1$wclk$8| #b01100100)
(= |main::1::t1243!0@1#1$wclk$8| #b01101010)
(= |__CPROVER_next_thread_id#2$wclk$8| #b01101011)
(= |main::1::t1243!0@1#2$wclk$8| #b01101101)
(= |main::1::t1244!0@1#1$wclk$8| #b01110000)
(= |__CPROVER_next_thread_id#3$rclk$8| #b01110001)
(= |__CPROVER_next_thread_id#5$wclk$8| #b01110001)
(= |main::1::t1244!0@1#2$wclk$8| #b01110010)
(= |main::1::t1245!0@1#1$wclk$8| #b01110100)
(= |__CPROVER_next_thread_id#6$rclk$8| #b01110101)
(= |__CPROVER_next_thread_id#8$wclk$8| #b01110101)
(= |main::1::t1245!0@1#2$wclk$8| #b01110110)
(= |main::1::t1246!0@1#1$wclk$8| #b11001001)
(= |__CPROVER_next_thread_id#9$rclk$8| #b11001010)
(= |__CPROVER_next_thread_id#11$wclk$8| #b11001010)
(= |main::1::t1246!0@1#2$wclk$8| #b11001011)
(= |main$tmp_guard0#2$wclk$8| #b11101110)
(= |main$tmp_guard0#3$rclk$8| #b11101111)
(= |b$r_buff0_thd0#2$rclk$8| #b11111011)
(= |main$tmp_guard1#3$rclk$8| #b11111101)
(= |main$tmp_guard1#4$wclk$8| #b11111101)
(= |main$tmp_guard1#5$rclk$8| #b11111110)
(= |main$tmp_guard1#6$rclk$8| #b11111111)
(= array_of.0 @fun_7)
(= |__CPROVER_threads_exited#2| @fun_7)
(= |__CPROVER_threads_exited#4| @fun_7)
(= |__CPROVER_threads_exited#6| @fun_7)
(= |__CPROVER_threads_exited#8| @fun_7)
(function @fun_7
 (type (Array (_ BitVec 32) (_ BitVec 1)))
 (= (@fun_7 #b00000000000000000000000000000000) #b0)
 (default #b1))

real	0m0.044s
user	0m0.037s
sys	0m0.007s
State: AC Run_time: 0.04560422897338867